c ind 11 114 14 15 174 199 202 22 25 32 0
c ind 33 36 37 49 61 63 65 67 7 75 0
c ind 8 97 99 0
p cnf 202 722
-1 -2 169 0
-1 2 190 0
-10 -11 7 0
-10 -7 11 0
-100 -101 73 0
-100 101 103 0
-101 102 0
-101 66 0
-102 79 0
-102 88 0
-103 -104 73 0
-103 104 106 0
-104 105 0
-104 66 0
-105 84 0
-105 88 0
-106 -107 89 0
-106 107 109 0
-107 108 0
-107 58 0
-108 -11 67 0
-108 -67 11 0
-109 -110 111 0
-109 110 53 0
-110 108 0
-110 70 0
-111 -112 53 0
-111 112 73 0
-112 113 96 0
-113 -11 114 0
-113 -114 11 0
-115 -57 26 0
-115 57 116 0
-116 -69 117 0
-116 69 138 0
-117 -27 118 0
-117 27 121 0
-118 -51 119 0
-118 51 121 0
-119 -120 0
-12 -13 0
-120 -11 75 0
-120 -75 11 0
-121 -24 119 0
-121 24 122 0
-122 -57 119 0
-122 57 123 0
-123 -69 124 0
-123 69 126 0
-124 -125 0
-125 -75 75 0
-126 -77 124 0
-126 77 127 0
-127 -82 124 0
-127 82 128 0
-128 -86 129 0
-128 86 131 0
-129 -130 0
-13 -14 15 0
-13 -15 14 0
-130 -15 75 0
-130 -75 15 0
-131 -92 132 0
-131 92 133 0
-132 -95 119 0
-132 95 124 0
-133 -101 124 0
-133 101 134 0
-134 -104 124 0
-134 104 135 0
-135 -107 129 0
-135 107 136 0
-136 -110 137 0
-136 110 119 0
-137 -112 119 0
-137 112 124 0
-138 -77 117 0
-138 77 139 0
-139 -82 117 0
-139 82 140 0
-140 -86 141 0
-140 86 162 0
-141 -27 142 0
-141 27 145 0
-142 -51 143 0
-142 51 145 0
-143 -144 0
-144 -11 15 0
-144 -15 11 0
-145 -24 143 0
-145 24 146 0
-146 -57 143 0
-146 57 147 0
-147 -69 148 0
-147 69 150 0
-148 -149 0
-149 -15 75 0
-149 -75 15 0
-15 0
-150 -77 148 0
-150 77 151 0
-151 -82 148 0
-151 82 152 0
-152 -86 153 0
-152 86 155 0
-153 -154 0
-154 -15 15 0
-155 -92 156 0
-155 92 157 0
-156 -95 143 0
-156 95 148 0
-157 -101 148 0
-157 101 158 0
-158 -104 148 0
-158 104 159 0
-159 -107 153 0
-159 107 160 0
-16 -17 0
-160 -110 161 0
-160 110 143 0
-161 -112 143 0
-161 112 148 0
-162 -92 163 0
-162 92 164 0
-163 -95 26 0
-163 95 117 0
-164 -101 117 0
-164 101 165 0
-165 -104 117 0
-165 104 166 0
-166 -107 141 0
-166 107 167 0
-167 -110 168 0
-167 110 26 0
-168 -112 26 0
-168 112 117 0
-169 -170 171 0
-169 170 182 0
-17 -11 14 0
-17 -14 11 0
-170 -11 22 0
-170 -22 11 0
-171 -27 172 0
-171 27 175 0
-172 -51 173 0
-172 51 175 0
-173 -11 174 0
-173 -174 11 0
-175 -24 173 0
-175 24 176 0
-176 -57 173 0
-176 57 177 0
-177 -69 178 0
-177 69 179 0
-178 -174 75 0
-178 -75 174 0
-179 -77 178 0
-179 77 180 0
-18 -19 0
-180 -82 178 0
-180 82 181 0
-181 -86 182 0
-181 86 183 0
-182 -15 174 0
-182 -174 15 0
-183 -92 184 0
-183 92 185 0
-184 -95 173 0
-184 95 178 0
-185 -101 178 0
-185 101 186 0
-186 -104 178 0
-186 104 187 0
-187 -107 182 0
-187 107 188 0
-188 -110 189 0
-188 110 173 0
-189 -112 173 0
-189 112 178 0
-19 -14 14 0
-190 -191 193 0
-190 191 194 0
-191 192 121 0
-192 18 20 0
-193 -170 175 0
-193 170 182 0
-194 -195 200 0
-194 195 201 0
-195 196 124 0
-196 18 197 0
-197 -198 0
-198 -199 22 0
-198 -22 199 0
-2 3 23 0
-20 -21 0
-200 -170 178 0
-200 170 182 0
-201 -174 202 0
-201 -202 174 0
-21 -22 22 0
-23 -24 26 0
-23 24 115 0
-24 -15 25 0
-24 -25 15 0
-26 -27 50 0
-26 27 55 0
-27 28 47 0
-28 -29 38 0
-28 29 45 0
-29 30 34 0
-3 4 20 0
-30 -31 0
-31 -32 33 0
-31 -33 32 0
-34 -35 0
-35 -36 37 0
-35 -37 36 0
-38 -39 42 0
-38 39 44 0
-39 40 0
-39 41 0
-4 -5 9 0
-4 5 18 0
-40 -11 36 0
-40 -36 11 0
-41 -11 32 0
-41 -32 11 0
-42 -43 0
-43 -11 25 0
-43 -25 11 0
-44 -24 0
-45 -46 0
-46 -25 25 0
-47 -48 0
-48 -49 49 0
-5 -6 0
-50 -51 53 0
-50 51 55 0
-51 -29 52 0
-51 29 24 0
-52 -39 15 0
-52 39 11 0
-53 -54 0
-54 -11 11 0
-55 -24 53 0
-55 24 56 0
-56 -57 53 0
-56 57 68 0
-57 58 0
-57 66 0
-58 59 0
-58 64 0
-59 60 0
-59 62 0
-6 -7 8 0
-6 -8 7 0
-60 -15 61 0
-60 -61 15 0
-62 -15 63 0
-62 -63 15 0
-64 -15 65 0
-64 -65 15 0
-66 -15 67 0
-66 -67 15 0
-68 -69 73 0
-68 69 76 0
-69 66 0
-69 70 0
-70 64 0
-70 71 0
-71 62 0
-71 72 0
-72 -11 61 0
-72 -61 11 0
-73 -74 0
-74 -11 75 0
-74 -75 11 0
-76 -77 73 0
-76 77 81 0
-77 66 0
-77 78 0
-78 64 0
-78 79 0
-79 60 0
-79 80 0
-80 -11 63 0
-80 -63 11 0
-81 -82 73 0
-81 82 85 0
-82 66 0
-82 83 0
-83 64 0
-83 84 0
-84 72 0
-84 80 0
-85 -86 89 0
-85 86 91 0
-86 66 0
-86 87 0
-87 59 0
-87 88 0
-88 -11 65 0
-88 -65 11 0
-89 -90 0
-9 -10 12 0
-9 10 16 0
-90 -11 15 0
-90 -15 11 0
-91 -92 94 0
-91 92 100 0
-92 66 0
-92 93 0
-93 71 0
-93 88 0
-94 -95 53 0
-94 95 73 0
-95 96 0
-95 98 0
-96 -11 97 0
-96 -97 11 0
-98 -11 99 0
-98 -99 11 0
1 -169 -190 0
1 -2 -169 0
1 0
1 2 -190 0
10 -7 -11 0
10 7 11 0
100 -101 -73 0
100 -73 -103 0
100 101 -103 0
101 -102 -66 0
102 -79 -88 0
103 -104 -73 0
103 -73 -106 0
103 104 -106 0
104 -105 -66 0
105 -84 -88 0
106 -107 -89 0
106 -89 -109 0
106 107 -109 0
107 -58 -108 0
108 -67 -11 0
108 67 11 0
109 -110 -111 0
109 -111 -53 0
109 110 -53 0
11 0
110 -70 -108 0
111 -112 -53 0
111 -53 -73 0
111 112 -73 0
112 -113 0
112 -96 0
113 -114 -11 0
113 114 11 0
115 -26 -116 0
115 -57 -26 0
115 57 -116 0
116 -117 -138 0
116 -69 -117 0
116 69 -138 0
117 -118 -121 0
117 -27 -118 0
117 27 -121 0
118 -119 -121 0
118 -51 -119 0
118 51 -121 0
119 120 0
12 13 0
120 -75 -11 0
120 75 11 0
121 -119 -122 0
121 -24 -119 0
121 24 -122 0
122 -119 -123 0
122 -57 -119 0
122 57 -123 0
123 -124 -126 0
123 -69 -124 0
123 69 -126 0
124 125 0
125 -75 -75 0
125 75 75 0
126 -124 -127 0
126 -77 -124 0
126 77 -127 0
127 -124 -128 0
127 -82 -124 0
127 82 -128 0
128 -129 -131 0
128 -86 -129 0
128 86 -131 0
129 130 0
13 -14 -15 0
13 14 15 0
130 -75 -15 0
130 75 15 0
131 -132 -133 0
131 -92 -132 0
131 92 -133 0
132 -119 -124 0
132 -95 -119 0
132 95 -124 0
133 -101 -124 0
133 -124 -134 0
133 101 -134 0
134 -104 -124 0
134 -124 -135 0
134 104 -135 0
135 -107 -129 0
135 -129 -136 0
135 107 -136 0
136 -110 -137 0
136 -137 -119 0
136 110 -119 0
137 -112 -119 0
137 -119 -124 0
137 112 -124 0
138 -117 -139 0
138 -77 -117 0
138 77 -139 0
139 -117 -140 0
139 -82 -117 0
139 82 -140 0
140 -141 -162 0
140 -86 -141 0
140 86 -162 0
141 -142 -145 0
141 -27 -142 0
141 27 -145 0
142 -143 -145 0
142 -51 -143 0
142 51 -145 0
143 144 0
144 -15 -11 0
144 15 11 0
145 -143 -146 0
145 -24 -143 0
145 24 -146 0
146 -143 -147 0
146 -57 -143 0
146 57 -147 0
147 -148 -150 0
147 -69 -148 0
147 69 -150 0
148 149 0
149 -15 -75 0
149 15 75 0
150 -148 -151 0
150 -77 -148 0
150 77 -151 0
151 -148 -152 0
151 -82 -148 0
151 82 -152 0
152 -153 -155 0
152 -86 -153 0
152 86 -155 0
153 154 0
154 -15 -15 0
154 15 15 0
155 -156 -157 0
155 -92 -156 0
155 92 -157 0
156 -143 -148 0
156 -95 -143 0
156 95 -148 0
157 -101 -148 0
157 -148 -158 0
157 101 -158 0
158 -104 -148 0
158 -148 -159 0
158 104 -159 0
159 -107 -153 0
159 -153 -160 0
159 107 -160 0
16 17 0
160 -110 -161 0
160 -161 -143 0
160 110 -143 0
161 -112 -143 0
161 -143 -148 0
161 112 -148 0
162 -163 -164 0
162 -92 -163 0
162 92 -164 0
163 -26 -117 0
163 -95 -26 0
163 95 -117 0
164 -101 -117 0
164 -117 -165 0
164 101 -165 0
165 -104 -117 0
165 -117 -166 0
165 104 -166 0
166 -107 -141 0
166 -141 -167 0
166 107 -167 0
167 -110 -168 0
167 -168 -26 0
167 110 -26 0
168 -112 -26 0
168 -26 -117 0
168 112 -117 0
169 -170 -171 0
169 -171 -182 0
169 170 -182 0
17 -14 -11 0
17 14 11 0
170 -22 -11 0
170 22 11 0
171 -172 -175 0
171 -27 -172 0
171 27 -175 0
172 -173 -175 0
172 -51 -173 0
172 51 -175 0
173 -174 -11 0
173 174 11 0
175 -173 -176 0
175 -24 -173 0
175 24 -176 0
176 -173 -177 0
176 -57 -173 0
176 57 -177 0
177 -178 -179 0
177 -69 -178 0
177 69 -179 0
178 -174 -75 0
178 174 75 0
179 -178 -180 0
179 -77 -178 0
179 77 -180 0
18 19 0
180 -178 -181 0
180 -82 -178 0
180 82 -181 0
181 -182 -183 0
181 -86 -182 0
181 86 -183 0
182 -174 -15 0
182 174 15 0
183 -184 -185 0
183 -92 -184 0
183 92 -185 0
184 -173 -178 0
184 -95 -173 0
184 95 -178 0
185 -101 -178 0
185 -178 -186 0
185 101 -186 0
186 -104 -178 0
186 -178 -187 0
186 104 -187 0
187 -107 -182 0
187 -182 -188 0
187 107 -188 0
188 -110 -189 0
188 -189 -173 0
188 110 -173 0
189 -112 -173 0
189 -173 -178 0
189 112 -178 0
19 -14 -14 0
19 14 14 0
190 -191 -193 0
190 -193 -194 0
190 191 -194 0
191 -121 0
191 -192 0
192 -18 0
192 -20 0
193 -170 -175 0
193 -175 -182 0
193 170 -182 0
194 -195 -200 0
194 -200 -201 0
194 195 -201 0
195 -124 0
195 -196 0
196 -18 0
196 -197 0
197 198 0
198 -22 -199 0
198 22 199 0
2 -23 0
2 -3 0
20 21 0
200 -170 -178 0
200 -178 -182 0
200 170 -182 0
201 -174 -202 0
201 174 202 0
21 -22 -22 0
21 22 22 0
23 -24 -26 0
23 -26 -115 0
23 24 -115 0
24 -25 -15 0
24 25 15 0
26 -27 -50 0
26 -50 -55 0
26 27 -55 0
27 -28 0
27 -47 0
28 -29 -38 0
28 -38 -45 0
28 29 -45 0
29 -30 0
29 -34 0
3 -20 0
3 -4 0
30 31 0
31 -32 -33 0
31 32 33 0
34 35 0
35 -36 -37 0
35 36 37 0
38 -39 -42 0
38 -42 -44 0
38 39 -44 0
39 -40 -41 0
4 -5 -9 0
4 -9 -18 0
4 5 -18 0
40 -36 -11 0
40 36 11 0
41 -32 -11 0
41 32 11 0
42 43 0
43 -25 -11 0
43 25 11 0
44 24 0
45 46 0
46 -25 -25 0
46 25 25 0
47 48 0
48 -49 -49 0
48 49 49 0
5 6 0
50 -51 -53 0
50 -53 -55 0
50 51 -55 0
51 -29 -52 0
51 -52 -24 0
51 29 -24 0
52 -15 -11 0
52 -39 -15 0
52 39 -11 0
53 54 0
54 -11 -11 0
54 11 11 0
55 -24 -53 0
55 -53 -56 0
55 24 -56 0
56 -53 -68 0
56 -57 -53 0
56 57 -68 0
57 -58 -66 0
58 -59 -64 0
59 -60 -62 0
6 -7 -8 0
6 7 8 0
60 -61 -15 0
60 61 15 0
62 -63 -15 0
62 63 15 0
64 -65 -15 0
64 65 15 0
66 -67 -15 0
66 67 15 0
68 -69 -73 0
68 -73 -76 0
68 69 -76 0
69 -70 -66 0
70 -71 -64 0
71 -72 -62 0
72 -61 -11 0
72 61 11 0
73 74 0
74 -11 -75 0
74 11 75 0
76 -73 -81 0
76 -77 -73 0
76 77 -81 0
77 -78 -66 0
78 -79 -64 0
79 -60 -80 0
80 -63 -11 0
80 63 11 0
81 -73 -85 0
81 -82 -73 0
81 82 -85 0
82 -83 -66 0
83 -84 -64 0
84 -72 -80 0
85 -86 -89 0
85 -89 -91 0
85 86 -91 0
86 -87 -66 0
87 -59 -88 0
88 -65 -11 0
88 65 11 0
89 90 0
9 -10 -12 0
9 -12 -16 0
9 10 -16 0
90 -11 -15 0
90 11 15 0
91 -92 -94 0
91 -94 -100 0
91 92 -100 0
92 -93 -66 0
93 -71 -88 0
94 -53 -73 0
94 -95 -53 0
94 95 -73 0
95 -96 -98 0
96 -97 -11 0
96 97 11 0
98 -99 -11 0
98 99 11 0
